coords = array2d(1..26, 1..2, [452, 937, 236, 649, 349, 751, 33, 185, 683, 568,
    174, 616, 178, 234, 198, 545, 669, 260, 563, 483, 714, 23, 515,
    13, 674, 147, 573, 915, 72, 990, 714, 368, 378, 54, 912, 673, 240,
    402, 358, 287, 983, 823, 134, 932, 950, 250, 742, 42, 947, 850,
    59, 71]);

n = 26;

